100
100
100
99
99
99
98
97
95
94
94
94
93
93
92
92
91
90
90
90
90
89
89
87
86
85
83
82
80
80
79
79
78
78
78
77
75
72
71
70
70
67
65
64
63
62
62
62
61
60
60
59
58
58
58
57
57
56
56
56
55
55
54
52
51
49
49
48
47
46
46
46
46
46
44
44
43
42
42
39
37
36
36
35
34
34
33
33
33
32
30
30
30
27
26
25
24
24
24
21
21
20
